VACCINE = Vaccine(1..2);
m = 24;
age = [BABY, SENIOR, ANCIENT, CHILD, SENIOR, CHILD, AGED, ADULT, YOUTH, SENIOR, AGED, ADULT, ADULT, BABY, AGED, ADULT, SENIOR, SENIOR, ADULT, YOUTH, YOUTH, AGED, ANCIENT, ADULT];
gender = [MALE, MALE, OTHER, OTHER, OTHER, OTHER, OTHER, OTHER, FEMALE, OTHER, MALE, MALE, OTHER, FEMALE, MALE, OTHER, FEMALE, OTHER, OTHER, MALE, FEMALE, OTHER, MALE, OTHER];
health = [COMPROMISED, COMPROMISED, COMPROMISED, COMPROMISED, GOOD, COMPROMISED, GOOD, POOR, POOR, POOR, POOR, GOOD, POOR, COMPROMISED, GOOD, GOOD, POOR, GOOD, POOR, COMPROMISED, COMPROMISED, COMPROMISED, COMPROMISED, POOR];
exposure = [AVERAGE, HIGH, AVERAGE, LOW, AVERAGE, AVERAGE, AVERAGE, EXTREME, EXTREME, EXTREME, EXTREME, LOW, AVERAGE, LOW, LOW, HIGH, AVERAGE, LOW, HIGH, HIGH, LOW, AVERAGE, HIGH, AVERAGE];
size = [11, 11, 13, 11, 13, 14, 14, 13, 12, 13, 10, 14, 15, 10, 14, 13, 14, 12, 15, 12, 14, 14, 15, 10];
minsize = 10;
age_group_min = [0, 0, 0, 0, 1, 0, 0];
age_group_max = [14, 21, 24, 18, 9, 20, 15];
max_people_diff = 231;
max_share_vaccines = 2;
health_information = {8, 13, 21};
exposure_information = {2, 6, 9, 20};